4
Lattice="4.0782 0.0 -4.078199999999999 2.4971772881413677e-16 -4.0782 4.078199999999999 0.0 0.0 28.5474" Properties=species:S:1:pos:R:3:move_mask:L:1:spacegroup_kinds:I:1:bulk_equivalent:I:1:bulk_wyckoff:S:1 pbc="T T T"
Au       0.00000000       0.00000000       8.15640000  F        0        0 a 
Au       0.00000000       0.00000000      12.23460000  F        0        0 a 
Au       0.00000000       0.00000000      16.31280000  T        0        0 a 
Au       0.00000000       0.00000000      20.39100000  T        0        0 a 
